p cnf 84 123                
1 44 0
-9 44 0
2 45 0
-10 45 0
3 46 0
-11 46 0
4 47 0
-12 47 0
-44 -45 -46 -47 48 0
-48 -49 0
-2 -1 -13 0
13 -19 0
-1 14 0
-2 14 0
1 2 -14 0
-14 -3 -15 0
15 -19 0
-3 16 0
-14 16 0
3 14 -16 0
-16 -4 -17 0
17 -19 0
4 16 -18 0
18 -19 0
19 -49 0
-6 -5 -20 0
20 -26 0
-5 21 0
-6 21 0
5 6 -21 0
-21 -7 -22 0
22 -26 0
-7 23 0
-21 23 0
7 21 -23 0
-23 -8 -24 0
24 -26 0
8 23 -25 0
25 -26 0
26 -49 0
-10 -9 -27 0
27 -33 0
-9 28 0
-10 28 0
9 10 -28 0
-28 -11 -29 0
29 -33 0
-11 30 0
-28 30 0
11 28 -30 0
-30 -12 -31 0
31 -33 0
12 30 -32 0
32 -33 0
33 -49 0
-1 5 -34 0
34 -38 0
-2 6 -35 0
35 -38 0
-3 7 -36 0
36 -38 0
-4 8 -37 0
37 -38 0
38 -49 0
-5 9 -39 0
39 -43 0
-6 10 -40 0
40 -43 0
-7 11 -41 0
41 -43 0
-8 12 -42 0
42 -43 0
43 -49 0
-1 2 -50 0
50 -60 0
-1 -2 51 0
1 2 51 0
-2 2 51 0
-5 6 -52 0
-51 52 -53 0
53 -60 0
-5 -6 54 0
5 6 54 0
-6 6 54 0
-51 -54 55 0
-9 10 -56 0
-55 56 -57 0
57 -60 0
60 -83 0
-2 3 -61 0
61 -71 0
-2 -3 62 0
2 3 62 0
-3 3 62 0
-6 7 -63 0
-62 63 -64 0
64 -71 0
-6 -7 65 0
6 7 65 0
-7 7 65 0
-62 -65 66 0
-10 11 -67 0
-66 67 -68 0
68 -71 0
71 -83 0
-3 4 -72 0
72 -82 0
-3 -4 73 0
3 4 73 0
-4 4 73 0
-7 8 -74 0
-73 74 -75 0
75 -82 0
-7 -8 76 0
7 8 76 0
-8 8 76 0
-73 -76 77 0
-11 12 -78 0
-77 78 -79 0
79 -82 0
82 -83 0
49 0
83 0
